8
28
0 1 607
0 2 1000
0 3 734
0 4 847
0 5 626
0 6 1441
0 7 399
1 2 709
1 3 513
1 4 240
1 5 457
1 6 834
1 7 420
2 3 1222
2 4 893
2 5 1166
2 6 975
2 7 1129
3 4 329
3 5 108
3 6 707
3 7 335
4 5 273
4 6 594
4 7 448
5 6 815
5 7 227
6 7 1042
